src/asp/benchmarks/small2.lp
citta(gubbio).
citta(umbertide).
citta(orvieto).

richiesta(gubbio, strade, 52).
richiesta(gubbio, fiumi, 3).
richiesta(gubbio, scuole, 37).
richiesta(gubbio, parchi, 35).
richiesta(gubbio, energia, 84).

richiesta(umbertide, strade, 48).
richiesta(umbertide, fiumi, 282).
richiesta(umbertide, scuole, 69).
richiesta(umbertide, parchi, 35).
richiesta(umbertide, energia, 172).

richiesta(orvieto, strade, 22).
richiesta(orvieto, fiumi, 108).
richiesta(orvieto, scuole, 19).
richiesta(orvieto, parchi, 10).
richiesta(orvieto, energia, 19).

